% Instancia problemática tipo: CUELLO_BOTELLA
% Razón: Topología con cuello de botella extremo, solo 1 nodo intermedio
% Demanda total: 11429.0
% Suministro total: 9143.2
% Factor holgura: 0.8

nP = 4;
nT = 1;
nC1 = 6;
nC2 = 10;
nA = 70;
nD = 3;

arc_from = [1, 2, 3, 4, 5, 5, 5, 5, 5, 5, 6, 6, 6, 6, 6, 6, 6, 6, 6, 6, 7, 7, 7, 7, 7, 7, 7, 7, 7, 7, 8, 8, 8, 8, 8, 8, 8, 8, 8, 8, 9, 9, 9, 9, 9, 9, 9, 9, 9, 9, 10, 10, 10, 10, 10, 10, 10, 10, 10, 10, 11, 11, 11, 11, 11, 11, 11, 11, 11, 11];
arc_to = [5, 5, 5, 5, 6, 7, 8, 9, 10, 11, 12, 13, 14, 15, 16, 17, 18, 19, 20, 21, 12, 13, 14, 15, 16, 17, 18, 19, 20, 21, 12, 13, 14, 15, 16, 17, 18, 19, 20, 21, 12, 13, 14, 15, 16, 17, 18, 19, 20, 21, 12, 13, 14, 15, 16, 17, 18, 19, 20, 21, 12, 13, 14, 15, 16, 17, 18, 19, 20, 21];

supply = [2285.80, 2285.80, 2285.80, 2285.80, 0, 0, 0, 0, 0, 0, 0, 0, 0, 0, 0, 0, 0, 0, 0, 0, 0];
demand = [0, 0, 0, 0, 0, 566.13, 676.78, 742.83, 501.95, 741.75, 709.44, 702.08, 646.64, 887.16, 700.98, 627.82, 629.01, 854.25, 781.12, 842.14, 818.92];

max_capacity = [795, 1414, 3181];

install_cost = array2d(1..nA, 1..nD, [
  20, 24, 32,
  50, 62, 78,
  20, 24, 32,
  50, 62, 78,
  20, 24, 32,
  50, 62, 78,
  20, 24, 32,
  50, 62, 78,
  20, 24, 32,
  50, 62, 78,
  20, 24, 32,
  50, 62, 78,
  20, 24, 32,
  50, 62, 78,
  20, 24, 32,
  50, 62, 78,
  20, 24, 32,
  50, 62, 78,
  20, 24, 32,
  50, 62, 78,
  20, 24, 32,
  50, 62, 78,
  20, 24, 32,
  50, 62, 78,
  20, 24, 32,
  50, 62, 78,
  20, 24, 32,
  50, 62, 78,
  20, 24, 32,
  50, 62, 78,
  20, 24, 32,
  50, 62, 78,
  20, 24, 32,
  50, 62, 78,
  20, 24, 32,
  50, 62, 78,
  20, 24, 32,
  50, 62, 78,
  20, 24, 32,
  50, 62, 78,
  20, 24, 32,
  50, 62, 78,
  20, 24, 32,
  50, 62, 78,
  20, 24, 32,
  50, 62, 78,
  20, 24, 32,
  50, 62, 78,
  20, 24, 32,
  50, 62, 78,
  20, 24, 32,
  50, 62, 78,
  20, 24, 32,
  50, 62, 78,
  20, 24, 32,
  50, 62, 78,
  20, 24, 32,
  50, 62, 78,
  20, 24, 32,
  50, 62, 78,
  20, 24, 32,
  50, 62, 78,
  20, 24, 32,
  50, 62, 78,
  20, 24, 32,
  50, 62, 78,
  20, 24, 32,
  50, 62, 78,
  20, 24, 32,
  50, 62, 78
]);

trans_cost = [5.35, 8.46, 8.17, 4.57, 9.07, 9.68, 11.25, 11.16, 3.87, 5.19, 9.55, 9.54, 9.55, 19.56, 9.71, 11.41, 10.86, 9.95, 7.05, 10.28, 5.68, 7.29, 6.54, 8.25, 14.94, 2.40, 10.06, 3.16, 6.58, 11.27, 8.19, 4.77, 5.85, 10.04, 5.81, 8.65, 8.14, 6.05, 14.43, 9.90, 1.92, 8.56, 6.01, 10.56, 5.62, 7.66, 9.51, 10.60, 4.40, 7, 6.58, 6.04, 13.30, 9.21, 4.22, 10.75, 14.37, 11.10, 3.44, 6.55, 11.80, 5.88, 9.33, 10.32, 5.22, 7.82, 0.50, 4.93, 7.24, 4.26];
